(set-logic QF_UF)
(declare-fun A0 () Bool)
(declare-fun A1 () Bool)
(declare-fun A2 () Bool)
(declare-fun A3 () Bool)
(declare-fun A4 () Bool)
(declare-fun A5 () Bool)
(declare-fun A6 () Bool)
(declare-fun A7 () Bool)
(declare-fun A8 () Bool)
(declare-fun A9 () Bool)
(declare-fun A10 () Bool)
(declare-fun A12 () Bool)
(declare-fun A13 () Bool)
(declare-fun A14 () Bool)
(declare-fun A15 () Bool)
(declare-fun A16 () Bool)
(declare-fun A17 () Bool)
(declare-fun A18 () Bool)
(declare-fun A20 () Bool)
(declare-fun A22 () Bool)
(declare-fun A23 () Bool)
(declare-fun A24 () Bool)
(assert (let ((.def_0 (not A6))) (let ((.def_1 (= A18 .def_0))) (let ((.def_2 (not .def_1))) (let ((.def_3 (and A12 A14))) (let ((.def_4 (= .def_3 .def_2))) (let ((.def_5 (not A15))) (let ((.def_6 (not A0))) (let ((.def_7 (and .def_6 .def_5))) (let ((.def_8 (not A23))) (let ((.def_9 (or .def_8 A6))) (let ((.def_10 (or .def_9 .def_7))) (let ((.def_11 (= .def_10 .def_4))) (let ((.def_12 (not A22))) (let ((.def_13 (and .def_12 .def_5))) (let ((.def_14 (not .def_13))) (let ((.def_15 (and A15 A12))) (let ((.def_16 (not .def_15))) (let ((.def_17 (or .def_16 .def_14))) (let ((.def_18 (not .def_17))) (let ((.def_19 (not A9))) (let ((.def_20 (not A2))) (let ((.def_21 (or .def_20 .def_19))) (let ((.def_22 (not .def_21))) (let ((.def_23 (or A13 A2))) (let ((.def_24 (not .def_23))) (let ((.def_25 (or .def_24 .def_22))) (let ((.def_26 (not .def_25))) (let ((.def_27 (= .def_26 .def_18))) (let ((.def_28 (and .def_27 .def_11))) (let ((.def_29 (not A10))) (let ((.def_30 (and .def_29 A5))) (let ((.def_31 (= .def_20 A10))) (let ((.def_32 (or .def_31 .def_30))) (let ((.def_33 (not .def_32))) (let ((.def_34 (not A4))) (let ((.def_35 (and A7 .def_34))) (let ((.def_36 (and A17 A22))) (let ((.def_37 (and .def_36 .def_35))) (let ((.def_38 (not .def_37))) (let ((.def_39 (and .def_38 .def_33))) (let ((.def_40 (not A3))) (let ((.def_41 (or A1 .def_40))) (let ((.def_42 (not .def_41))) (let ((.def_43 (= .def_29 A1))) (let ((.def_44 (and .def_43 .def_42))) (let ((.def_45 (not .def_44))) (let ((.def_46 (not A24))) (let ((.def_47 (and .def_46 A5))) (let ((.def_48 (not .def_47))) (let ((.def_49 (or A17 A20))) (let ((.def_50 (and .def_49 .def_48))) (let ((.def_51 (not .def_50))) (let ((.def_52 (and .def_51 .def_45))) (let ((.def_53 (not .def_52))) (let ((.def_54 (and .def_53 .def_39))) (let ((.def_55 (not .def_54))) (let ((.def_56 (or .def_55 .def_28))) (let ((.def_57 (not .def_56))) (let ((.def_58 (not A13))) (let ((.def_59 (or .def_6 .def_58))) (let ((.def_60 (not A12))) (let ((.def_61 (or A18 .def_60))) (let ((.def_62 (and .def_61 .def_59))) (let ((.def_63 (not .def_62))) (let ((.def_64 (not A18))) (let ((.def_65 (and A15 .def_64))) (let ((.def_66 (not .def_65))) (let ((.def_67 (or A1 .def_58))) (let ((.def_68 (not .def_67))) (let ((.def_69 (and .def_68 .def_66))) (let ((.def_70 (or .def_69 .def_63))) (let ((.def_71 (and .def_60 A2))) (let ((.def_72 (not .def_71))) (let ((.def_73 (or A8 .def_12))) (let ((.def_74 (and .def_73 .def_72))) (let ((.def_75 (not .def_74))) (let ((.def_76 (not A5))) (let ((.def_77 (and .def_76 A8))) (let ((.def_78 (not .def_77))) (let ((.def_79 (or A8 .def_40))) (let ((.def_80 (not .def_79))) (let ((.def_81 (and .def_80 .def_78))) (let ((.def_82 (= .def_81 .def_75))) (let ((.def_83 (or .def_82 .def_70))) (let ((.def_84 (or A8 A7))) (let ((.def_85 (not A8))) (let ((.def_86 (or .def_85 A2))) (let ((.def_87 (and .def_86 .def_84))) (let ((.def_88 (or .def_5 .def_6))) (let ((.def_89 (not .def_88))) (let ((.def_90 (not A14))) (let ((.def_91 (not A16))) (let ((.def_92 (and .def_91 .def_90))) (let ((.def_93 (not .def_92))) (let ((.def_94 (and .def_93 .def_89))) (let ((.def_95 (not .def_94))) (let ((.def_96 (and .def_95 .def_87))) (let ((.def_97 (not .def_96))) (let ((.def_98 (or .def_5 A2))) (let ((.def_99 (not .def_98))) (let ((.def_100 (and A8 A5))) (let ((.def_101 (not .def_100))) (let ((.def_102 (or .def_101 .def_99))) (let ((.def_103 (and .def_40 .def_60))) (let ((.def_104 (not .def_103))) (let ((.def_105 (or A22 .def_12))) (let ((.def_106 (and .def_105 .def_104))) (let ((.def_107 (or .def_106 .def_102))) (let ((.def_108 (not .def_107))) (let ((.def_109 (or .def_108 .def_97))) (let ((.def_110 (not .def_109))) (let ((.def_111 (and .def_110 .def_83))) (let ((.def_112 (or .def_111 .def_57))) .def_112))))))))))))))))))))))))))))))))))))))))))))))))))))))))))))))))))))))))))))))))))))))))))))))))))))))))))))))))))
(check-sat)
